15,4	0,0	18,7	8,4	0,0	0,0	0,0	0,0	0,0	17,1
15,7	17,0	0,0	10,1	10,0	0,0	0,0	17,6	0,0	0,0
0,0	0,0	10,2	0,0	5,4	19,3	0,0	0,0	13,5	0,0
16,4	0,0	16,3	0,0	0,0	0,0	17,4	0,0	0,0	0,0
0,0	13,1	0,0	13,4	15,8	0,0	0,0	17,9	0,0	0,0
0,0	17,8	7,8	0,0	15,9	7,2	0,0	0,0	17,9	0,0
0,0	16,8	0,0	5,1	0,0	0,0	16,3	0,0	0,0	7,9
5,3	0,0	9,0	0,0	0,0	0,0	0,0	0,0	0,0	18,8
0,0	9,7	0,0	10,9	20,0	0,0	0,0	14,3	0,0	0,0
0,0	0,0	18,0	0,0	0,0	10,0	8,6	0,0	0,0	17,8
									
2,7	4,7	2,7	2,6	2,7	3,0	3,4	3,7	4,2	3,7
